\ Model mip1_copy
\ LP format - for model browsing. Use MPS format to capture full model detail.
Minimize
 
Subject To
 R68: - s_[1] + d_m_[1] = -1
 R72: - s_[2] + d_m_[2] = -1
 R84: - s_[5] + d_m_[5] = -1
 R92: - s_[7] + d_m_[7] = -1
 R112: - s_[12] + d_m_[12] = -1
 R116: - s_[13] + d_m_[13] = -1
 R124: - s_[15] + d_m_[15] = -1
 R128: - s_[16] + d_m_[16] = -1
 R132: - s_[17] + d_m_[17] = -1
 R140: - s_[19] + d_m_[19] = -1
 R152: - s_[22] + d_m_[22] = -1
 R172: - s_[27] + d_m_[27] = -1
 R176: - s_[28] + d_m_[28] = -1
 R184: - s_[30] + d_m_[30] = -1
 R192: - s_[32] + d_m_[32] = -1
 R220: - s_[39] + d_m_[39] = -1
 R224: - s_[40] + d_m_[40] = -1
 R248: - s_[46] + d_m_[46] = -1
 R260: - s_[49] + d_m_[49] = -1
 R268: - s_[51] + d_m_[51] = -1
 R316: - s_[63] + d_m_[63] = -1
 R320: - s_[64] + d_m_[64] = -1
 R344: - s_[70] + d_m_[70] = -1
 R360: - s_[74] + d_m_[74] = -1
 R368: - s_[76] + d_m_[76] = -1
 R376: - s_[78] + d_m_[78] = -1
 R404: - s_[85] + d_m_[85] = -1
 R416: - s_[88] + d_m_[88] = -1
 R444: - s_[95] + d_m_[95] = -1
 R448: - s_[96] + d_m_[96] = -1
 R456: - s_[98] + d_m_[98] = -1
 R464: - s_[100] + d_m_[100] = -1
 R472: - s_[102] + d_m_[102] = -1
 R508: - s_[111] + d_m_[111] = -1
 R548: - s_[121] + d_m_[121] = -1
 R552: - s_[122] + d_m_[122] = -1
 R572: - s_[127] + d_m_[127] = -1
 R584: - s_[130] + d_m_[130] = -1
 R604: - s_[135] + d_m_[135] = -1
 R620: - s_[139] + d_m_[139] = -1
 R624: - s_[140] + d_m_[140] = -1
 R628: - s_[141] + d_m_[141] = -1
 R680: - s_[154] + d_m_[154] = -1
 R692: - s_[157] + d_m_[157] = -1
 R712: - s_[162] + d_m_[162] = -1
 R740: - s_[169] + d_m_[169] = -1
 R748: - s_[171] + d_m_[171] = -1
 R760: - s_[174] + d_m_[174] = -1
 R772: - s_[177] + d_m_[177] = -1
 R784: - s_[180] + d_m_[180] = -1
 R788: - s_[181] + d_m_[181] = -1
 R792: - s_[182] + d_m_[182] = -1
 R796: - s_[183] + d_m_[183] = -1
 R812: - s_[187] + d_m_[187] = -1
 R820: - s_[189] + d_m_[189] = -1
 R828: - s_[191] + d_m_[191] = -1
 R836: - s_[193] + d_m_[193] = -1
 R848: - s_[196] + d_m_[196] = -1
 R856: - s_[198] + d_m_[198] = -1
 R876: - s_[203] + d_m_[203] = -1
 R912: - s_[212] + d_m_[212] = -1
 R924: - s_[215] + d_m_[215] = -1
 R932: - s_[217] + d_m_[217] = -1
 R936: - s_[218] + d_m_[218] = -1
 R948: - s_[221] + d_m_[221] = -1
 R952: - s_[222] + d_m_[222] = -1
 R968: - s_[226] + d_m_[226] = -1
 R1000: - s_[234] + d_m_[234] = -1
 R1008: - s_[236] + d_m_[236] = -1
 R1024: - s_[240] + d_m_[240] = -1
 R1040: - s_[244] + d_m_[244] = -1
 R1052: - s_[247] + d_m_[247] = -1
 R1072: - s_[252] + d_m_[252] = -1
 R1076: - s_[253] + d_m_[253] = -1
 R1088: - s_[256] + d_m_[256] = -1
 R1096: - s_[258] + d_m_[258] = -1
 R1100: - s_[259] + d_m_[259] = -1
 R1108: - s_[261] + d_m_[261] = -1
 R1124: - s_[265] + d_m_[265] = -1
 R1148: - s_[271] + d_m_[271] = -1
 R1156: - s_[273] + d_m_[273] = -1
 R1168: - s_[276] + d_m_[276] = -1
 R1192: - s_[282] + d_m_[282] = -1
 R1196: - s_[283] + d_m_[283] = -1
 R1216: - s_[288] + d_m_[288] = -1
 R1232: - s_[292] + d_m_[292] = -1
 R1240: - s_[294] + d_m_[294] = -1
 R1244: - s_[295] + d_m_[295] = -1
 R1264: - s_[300] + d_m_[300] = -1
 R1268: - s_[301] + d_m_[301] = -1
 R1272: - s_[302] + d_m_[302] = -1
 R1280: - s_[304] + d_m_[304] = -1
 R1284: - s_[305] + d_m_[305] = -1
 R1316: - s_[313] + d_m_[313] = -1
 R1320: - s_[314] + d_m_[314] = -1
 R1324: - s_[315] + d_m_[315] = -1
 R1328: - s_[316] + d_m_[316] = -1
 R1340: - s_[319] + d_m_[319] = -1
 R1352: - s_[322] + d_m_[322] = -1
 R1364: - s_[325] + d_m_[325] = -1
 R1376: - s_[328] + d_m_[328] = -1
 R1384: - s_[330] + d_m_[330] = -1
 R1388: - s_[331] + d_m_[331] = -1
 R1396: - s_[333] + d_m_[333] = -1
 R1404: - s_[335] + d_m_[335] = -1
 R1420: - s_[339] + d_m_[339] = -1
 R1428: - s_[341] + d_m_[341] = -1
 R1444: - s_[345] + d_m_[345] = -1
 R1448: - s_[346] + d_m_[346] = -1
 R1468: - s_[351] + d_m_[351] = -1
 R1476: - s_[353] + d_m_[353] = -1
 R1520: - s_[364] + d_m_[364] = -1
 R1544: - s_[370] + d_m_[370] = -1
 R1552: - s_[372] + d_m_[372] = -1
 R1556: - s_[373] + d_m_[373] = -1
 R1564: - s_[375] + d_m_[375] = -1
 R1580: - s_[379] + d_m_[379] = -1
 R1604: - s_[385] + d_m_[385] = -1
 R1608: - s_[386] + d_m_[386] = -1
 R1616: - s_[388] + d_m_[388] = -1
 R1620: - s_[389] + d_m_[389] = -1
 R1628: - s_[391] + d_m_[391] = -1
 R1656: - s_[398] + d_m_[398] = -1
 R1660: - s_[399] + d_m_[399] = -1
 R1672: - s_[402] + d_m_[402] = -1
 R1676: - s_[403] + d_m_[403] = -1
 R1680: - s_[404] + d_m_[404] = -1
 R1688: - s_[406] + d_m_[406] = -1
 R1692: - s_[407] + d_m_[407] = -1
 R1712: - s_[412] + d_m_[412] = -1
 R1716: - s_[413] + d_m_[413] = -1
 R1720: - s_[414] + d_m_[414] = -1
 R1724: - s_[415] + d_m_[415] = -1
 R1736: - s_[418] + d_m_[418] = -1
 R1752: - s_[422] + d_m_[422] = -1
 R1756: - s_[423] + d_m_[423] = -1
 R1760: - s_[424] + d_m_[424] = -1
 R1768: - s_[426] + d_m_[426] = -1
 R1792: - s_[432] + d_m_[432] = -1
 R1800: - s_[434] + d_m_[434] = -1
 R1812: - s_[437] + d_m_[437] = -1
 R1824: - s_[440] + d_m_[440] = -1
 R1828: - s_[441] + d_m_[441] = -1
 R1848: - s_[446] + d_m_[446] = -1
 R1860: - s_[449] + d_m_[449] = -1
 R1872: - s_[452] + d_m_[452] = -1
 R1896: - s_[458] + d_m_[458] = -1
 R1900: - s_[459] + d_m_[459] = -1
 R1912: - s_[462] + d_m_[462] = -1
 R1932: - s_[467] + d_m_[467] = -1
 R1948: - s_[471] + d_m_[471] = -1
 R1956: - s_[473] + d_m_[473] = -1
 R1972: - s_[477] + d_m_[477] = -1
 R1980: - s_[479] + d_m_[479] = -1
 R1992: - s_[482] + d_m_[482] = -1
 R2004: - s_[485] + d_m_[485] = -1
 R2020: - s_[489] + d_m_[489] = -1
 R2028: - s_[491] + d_m_[491] = -1
 R2032: - s_[492] + d_m_[492] = -1
 R2068: - s_[501] + d_m_[501] = -1
 R2072: - s_[502] + d_m_[502] = -1
 R2076: - s_[503] + d_m_[503] = -1
 R2084: - s_[505] + d_m_[505] = -1
 R2092: - s_[507] + d_m_[507] = -1
 R2120: - s_[514] + d_m_[514] = -1
 R2124: - s_[515] + d_m_[515] = -1
 R2136: - s_[518] + d_m_[518] = -1
 R2140: - s_[519] + d_m_[519] = -1
 R2148: - s_[521] + d_m_[521] = -1
 R2152: - s_[522] + d_m_[522] = -1
 R2156: - s_[523] + d_m_[523] = -1
 R2192: - s_[532] + d_m_[532] = -1
 R2236: - s_[543] + d_m_[543] = -1
 R2248: - s_[546] + d_m_[546] = -1
 R2276: - s_[553] + d_m_[553] = -1
 R2292: - s_[557] + d_m_[557] = -1
 R2296: - s_[558] + d_m_[558] = -1
 R2316: - s_[563] + d_m_[563] = -1
 R2332: - s_[567] + d_m_[567] = -1
 R2336: - s_[568] + d_m_[568] = -1
 R2340: - s_[569] + d_m_[569] = -1
 R2344: - s_[570] + d_m_[570] = -1
 R2356: - s_[573] + d_m_[573] = -1
 R2360: - s_[574] + d_m_[574] = -1
 R2364: - s_[575] + d_m_[575] = -1
 R2369: - s_[143] + d_m_[143] = -1
 R2384: - s_[580] + d_m_[580] = -1
 R2388: - s_[581] + d_m_[581] = -1
 R2409: - s_[148] + d_m_[148] = -1
 R2420: - s_[589] + d_m_[589] = -1
 R2452: - s_[597] + d_m_[597] = -1
 R2460: - s_[599] + d_m_[599] = -1
 R2468: - s_[601] + d_m_[601] = -1
 R2476: - s_[603] + d_m_[603] = -1
 R2488: - s_[606] + d_m_[606] = -1
 R2500: - s_[609] + d_m_[609] = -1
 R2524: - s_[615] + d_m_[615] = -1
 R2528: - s_[616] + d_m_[616] = -1
 R2533: - s_[164] + d_m_[164] = -1
 R2557: - s_[167] + d_m_[167] = -1
 R2560: - s_[624] + d_m_[624] = -1
 R2565: s_[0] + s_[1] + s_[2] + s_[3] + s_[4] + s_[5] + s_[6] + s_[7]
   + s_[8] + s_[9] + s_[10] + s_[11] + s_[12] + s_[13] + s_[14] + s_[15]
   + s_[16] + s_[17] + s_[18] + s_[19] + s_[20] + s_[21] + s_[22] + s_[23]
   + s_[24] + s_[25] + s_[26] + s_[27] + s_[28] + s_[29] + s_[30] + s_[31]
   + s_[32] + s_[33] + s_[34] + s_[35] + s_[36] + s_[37] + s_[38] + s_[39]
   + s_[40] + s_[41] + s_[42] + s_[43] + s_[44] + s_[45] + s_[46] + s_[47]
   + s_[48] + s_[49] + s_[50] + s_[51] + s_[52] + s_[53] + s_[54] + s_[55]
   + s_[56] + s_[57] + s_[58] + s_[59] + s_[60] + s_[61] + s_[62] + s_[63]
   + s_[64] + s_[65] + s_[66] + s_[67] + s_[68] + s_[69] + s_[70] + s_[71]
   + s_[72] + s_[73] + s_[74] + s_[75] + s_[76] + s_[77] + s_[78] + s_[79]
   + s_[80] + s_[81] + s_[82] + s_[83] + s_[84] + s_[85] + s_[86] + s_[87]
   + s_[88] + s_[89] + s_[90] + s_[91] + s_[92] + s_[93] + s_[94] + s_[95]
   + s_[96] + s_[97] + s_[98] + s_[99] + s_[100] + s_[101] + s_[102]
   + s_[103] + s_[104] + s_[105] + s_[106] + s_[107] + s_[108] + s_[109]
   + s_[110] + s_[111] + s_[112] + s_[113] + s_[114] + s_[115] + s_[116]
   + s_[117] + s_[118] + s_[119] + s_[120] + s_[121] + s_[122] + s_[123]
   + s_[124] + s_[125] + s_[126] + s_[127] + s_[128] + s_[129] + s_[130]
   + s_[131] + s_[132] + s_[133] + s_[134] + s_[135] + s_[136] + s_[137]
   + s_[138] + s_[139] + s_[140] + s_[141] + s_[142] + s_[143] + s_[144]
   + s_[145] + s_[146] + s_[147] + s_[148] + s_[149] + s_[150] + s_[151]
   + s_[152] + s_[153] + s_[154] + s_[155] + s_[156] + s_[157] + s_[158]
   + s_[159] + s_[160] + s_[161] + s_[162] + s_[163] + s_[164] + s_[165]
   + s_[166] + s_[167] + s_[168] + s_[169] + s_[170] + s_[171] + s_[172]
   + s_[173] + s_[174] + s_[175] + s_[176] + s_[177] + s_[178] + s_[179]
   + s_[180] + s_[181] + s_[182] + s_[183] + s_[184] + s_[185] + s_[186]
   + s_[187] + s_[188] + s_[189] + s_[190] + s_[191] + s_[192] + s_[193]
   + s_[194] + s_[195] + s_[196] + s_[197] + s_[198] + s_[199] + s_[200]
   + s_[201] + s_[202] + s_[203] + s_[204] + s_[205] + s_[206] + s_[207]
   + s_[208] + s_[209] + s_[210] + s_[211] + s_[212] + s_[213] + s_[214]
   + s_[215] + s_[216] + s_[217] + s_[218] + s_[219] + s_[220] + s_[221]
   + s_[222] + s_[223] + s_[224] + s_[225] + s_[226] + s_[227] + s_[228]
   + s_[229] + s_[230] + s_[231] + s_[232] + s_[233] + s_[234] + s_[235]
   + s_[236] + s_[237] + s_[238] + s_[239] + s_[240] + s_[241] + s_[242]
   + s_[243] + s_[244] + s_[245] + s_[246] + s_[247] + s_[248] + s_[249]
   + s_[250] + s_[251] + s_[252] + s_[253] + s_[254] + s_[255] + s_[256]
   + s_[257] + s_[258] + s_[259] + s_[260] + s_[261] + s_[262] + s_[263]
   + s_[264] + s_[265] + s_[266] + s_[267] + s_[268] + s_[269] + s_[270]
   + s_[271] + s_[272] + s_[273] + s_[274] + s_[275] + s_[276] + s_[277]
   + s_[278] + s_[279] + s_[280] + s_[281] + s_[282] + s_[283] + s_[284]
   + s_[285] + s_[286] + s_[287] + s_[288] + s_[289] + s_[290] + s_[291]
   + s_[292] + s_[293] + s_[294] + s_[295] + s_[296] + s_[297] + s_[298]
   + s_[299] + s_[300] + s_[301] + s_[302] + s_[303] + s_[304] + s_[305]
   + s_[306] + s_[307] + s_[308] + s_[309] + s_[310] + s_[311] + s_[312]
   + s_[313] + s_[314] + s_[315] + s_[316] + s_[317] + s_[318] + s_[319]
   + s_[320] + s_[321] + s_[322] + s_[323] + s_[324] + s_[325] + s_[326]
   + s_[327] + s_[328] + s_[329] + s_[330] + s_[331] + s_[332] + s_[333]
   + s_[334] + s_[335] + s_[336] + s_[337] + s_[338] + s_[339] + s_[340]
   + s_[341] + s_[342] + s_[343] + s_[344] + s_[345] + s_[346] + s_[347]
   + s_[348] + s_[349] + s_[350] + s_[351] + s_[352] + s_[353] + s_[354]
   + s_[355] + s_[356] + s_[357] + s_[358] + s_[359] + s_[360] + s_[361]
   + s_[362] + s_[363] + s_[364] + s_[365] + s_[366] + s_[367] + s_[368]
   + s_[369] + s_[370] + s_[371] + s_[372] + s_[373] + s_[374] + s_[375]
   + s_[376] + s_[377] + s_[378] + s_[379] + s_[380] + s_[381] + s_[382]
   + s_[383] + s_[384] + s_[385] + s_[386] + s_[387] + s_[388] + s_[389]
   + s_[390] + s_[391] + s_[392] + s_[393] + s_[394] + s_[395] + s_[396]
   + s_[397] + s_[398] + s_[399] + s_[400] + s_[401] + s_[402] + s_[403]
   + s_[404] + s_[405] + s_[406] + s_[407] + s_[408] + s_[409] + s_[410]
   + s_[411] + s_[412] + s_[413] + s_[414] + s_[415] + s_[416] + s_[417]
   + s_[418] + s_[419] + s_[420] + s_[421] + s_[422] + s_[423] + s_[424]
   + s_[425] + s_[426] + s_[427] + s_[428] + s_[429] + s_[430] + s_[431]
   + s_[432] + s_[433] + s_[434] + s_[435] + s_[436] + s_[437] + s_[438]
   + s_[439] + s_[440] + s_[441] + s_[442] + s_[443] + s_[444] + s_[445]
   + s_[446] + s_[447] + s_[448] + s_[449] + s_[450] + s_[451] + s_[452]
   + s_[453] + s_[454] + s_[455] + s_[456] + s_[457] + s_[458] + s_[459]
   + s_[460] + s_[461] + s_[462] + s_[463] + s_[464] + s_[465] + s_[466]
   + s_[467] + s_[468] + s_[469] + s_[470] + s_[471] + s_[472] + s_[473]
   + s_[474] + s_[475] + s_[476] + s_[477] + s_[478] + s_[479] + s_[480]
   + s_[481] + s_[482] + s_[483] + s_[484] + s_[485] + s_[486] + s_[487]
   + s_[488] + s_[489] + s_[490] + s_[491] + s_[492] + s_[493] + s_[494]
   + s_[495] + s_[496] + s_[497] + s_[498] + s_[499] + s_[500] + s_[501]
   + s_[502] + s_[503] + s_[504] + s_[505] + s_[506] + s_[507] + s_[508]
   + s_[509] + s_[510] + s_[511] + s_[512] + s_[513] + s_[514] + s_[515]
   + s_[516] + s_[517] + s_[518] + s_[519] + s_[520] + s_[521] + s_[522]
   + s_[523] + s_[524] + s_[525] + s_[526] + s_[527] + s_[528] + s_[529]
   + s_[530] + s_[531] + s_[532] + s_[533] + s_[534] + s_[535] + s_[536]
   + s_[537] + s_[538] + s_[539] + s_[540] + s_[541] + s_[542] + s_[543]
   + s_[544] + s_[545] + s_[546] + s_[547] + s_[548] + s_[549] + s_[550]
   + s_[551] + s_[552] + s_[553] + s_[554] + s_[555] + s_[556] + s_[557]
   + s_[558] + s_[559] + s_[560] + s_[561] + s_[562] + s_[563] + s_[564]
   + s_[565] + s_[566] + s_[567] + s_[568] + s_[569] + s_[570] + s_[571]
   + s_[572] + s_[573] + s_[574] + s_[575] + s_[576] + s_[577] + s_[578]
   + s_[579] + s_[580] + s_[581] + s_[582] + s_[583] + s_[584] + s_[585]
   + s_[586] + s_[587] + s_[588] + s_[589] + s_[590] + s_[591] + s_[592]
   + s_[593] + s_[594] + s_[595] + s_[596] + s_[597] + s_[598] + s_[599]
   + s_[600] + s_[601] + s_[602] + s_[603] + s_[604] + s_[605] + s_[606]
   + s_[607] + s_[608] + s_[609] + s_[610] + s_[611] + s_[612] + s_[613]
   + s_[614] + s_[615] + s_[616] + s_[617] + s_[618] + s_[619] + s_[620]
   + s_[621] + s_[622] + s_[623] + s_[624] + s_[625] + s_[626] + s_[627]
   + s_[628] + s_[629] + s_[630] + s_[631] + s_[632] + s_[633] + s_[634]
   + s_[635] + s_[636] + s_[637] + s_[638] + s_[639] + s_[640] + s_[641]
   + s_[642] + s_[643] + s_[644] + s_[645] + s_[646] + s_[647] + s_[648]
   + s_[649] + s_[650] + s_[651] + s_[652] + s_[653] + s_[654] + s_[655]
   + s_[656] + s_[657] + s_[658] + s_[659] + s_[660] + s_[661] + s_[662]
   + s_[663] + s_[664] + s_[665] + s_[666] + s_[667] + s_[668] + s_[669]
   + s_[670] + s_[671] + s_[672] + s_[673] + s_[674] + s_[675] + s_[676]
   + s_[677] + s_[678] + s_[679] + s_[680] + s_[681] + s_[682] + s_[683]
   + s_[684] + s_[685] + s_[686] + s_[687] + s_[688] + s_[689] + s_[690]
   + s_[691] + s_[692] + s_[693] + s_[694] + s_[695] + s_[696] + s_[697]
   + s_[698] + s_[699] + s_[700] + s_[701] + s_[702] + s_[703] + s_[704]
   + s_[705] + s_[706] + s_[707] + s_[708] + s_[709] + s_[710] + s_[711]
   + s_[712] + s_[713] + s_[714] + s_[715] + s_[716] + s_[717] + s_[718]
   + s_[719] + s_[720] + s_[721] + s_[722] + s_[723] + s_[724] + s_[725]
   + s_[726] + s_[727] + s_[728] + s_[729] + s_[730] + s_[731] + s_[732]
   + s_[733] + s_[734] + s_[735] + s_[736] + s_[737] + s_[738] + s_[739]
   + s_[740] + s_[741] + s_[742] + s_[743] + s_[744] + s_[745] + s_[746]
   + s_[747] + s_[748] + s_[749] + s_[750] + s_[751] + s_[752] + s_[753]
   + s_[754] + s_[755] + s_[756] + s_[757] + s_[758] + s_[759] + s_[760]
   + s_[761] + s_[762] + s_[763] + s_[764] + s_[765] + s_[766] + s_[767]
   + s_[768] + s_[769] + s_[770] + s_[771] + s_[772] + s_[773] + s_[774]
   + s_[775] + s_[776] + s_[777] + s_[778] + s_[779] + s_[780] + s_[781]
   + s_[782] + s_[783] + s_[784] + s_[785] + s_[786] + s_[787] + s_[788]
   + s_[789] + s_[790] + s_[791] + s_[792] + s_[793] <= 200
Bounds
Binaries
 s_[0] s_[1] s_[2] s_[3] s_[4] s_[5] s_[6] s_[7] s_[8] s_[9] s_[10] s_[11]
 s_[12] s_[13] s_[14] s_[15] s_[16] s_[17] s_[18] s_[19] s_[20] s_[21]
 s_[22] s_[23] s_[24] s_[25] s_[26] s_[27] s_[28] s_[29] s_[30] s_[31]
 s_[32] s_[33] s_[34] s_[35] s_[36] s_[37] s_[38] s_[39] s_[40] s_[41]
 s_[42] s_[43] s_[44] s_[45] s_[46] s_[47] s_[48] s_[49] s_[50] s_[51]
 s_[52] s_[53] s_[54] s_[55] s_[56] s_[57] s_[58] s_[59] s_[60] s_[61]
 s_[62] s_[63] s_[64] s_[65] s_[66] s_[67] s_[68] s_[69] s_[70] s_[71]
 s_[72] s_[73] s_[74] s_[75] s_[76] s_[77] s_[78] s_[79] s_[80] s_[81]
 s_[82] s_[83] s_[84] s_[85] s_[86] s_[87] s_[88] s_[89] s_[90] s_[91]
 s_[92] s_[93] s_[94] s_[95] s_[96] s_[97] s_[98] s_[99] s_[100] s_[101]
 s_[102] s_[103] s_[104] s_[105] s_[106] s_[107] s_[108] s_[109] s_[110]
 s_[111] s_[112] s_[113] s_[114] s_[115] s_[116] s_[117] s_[118] s_[119]
 s_[120] s_[121] s_[122] s_[123] s_[124] s_[125] s_[126] s_[127] s_[128]
 s_[129] s_[130] s_[131] s_[132] s_[133] s_[134] s_[135] s_[136] s_[137]
 s_[138] s_[139] s_[140] s_[141] s_[142] s_[143] s_[144] s_[145] s_[146]
 s_[147] s_[148] s_[149] s_[150] s_[151] s_[152] s_[153] s_[154] s_[155]
 s_[156] s_[157] s_[158] s_[159] s_[160] s_[161] s_[162] s_[163] s_[164]
 s_[165] s_[166] s_[167] s_[168] s_[169] s_[170] s_[171] s_[172] s_[173]
 s_[174] s_[175] s_[176] s_[177] s_[178] s_[179] s_[180] s_[181] s_[182]
 s_[183] s_[184] s_[185] s_[186] s_[187] s_[188] s_[189] s_[190] s_[191]
 s_[192] s_[193] s_[194] s_[195] s_[196] s_[197] s_[198] s_[199] s_[200]
 s_[201] s_[202] s_[203] s_[204] s_[205] s_[206] s_[207] s_[208] s_[209]
 s_[210] s_[211] s_[212] s_[213] s_[214] s_[215] s_[216] s_[217] s_[218]
 s_[219] s_[220] s_[221] s_[222] s_[223] s_[224] s_[225] s_[226] s_[227]
 s_[228] s_[229] s_[230] s_[231] s_[232] s_[233] s_[234] s_[235] s_[236]
 s_[237] s_[238] s_[239] s_[240] s_[241] s_[242] s_[243] s_[244] s_[245]
 s_[246] s_[247] s_[248] s_[249] s_[250] s_[251] s_[252] s_[253] s_[254]
 s_[255] s_[256] s_[257] s_[258] s_[259] s_[260] s_[261] s_[262] s_[263]
 s_[264] s_[265] s_[266] s_[267] s_[268] s_[269] s_[270] s_[271] s_[272]
 s_[273] s_[274] s_[275] s_[276] s_[277] s_[278] s_[279] s_[280] s_[281]
 s_[282] s_[283] s_[284] s_[285] s_[286] s_[287] s_[288] s_[289] s_[290]
 s_[291] s_[292] s_[293] s_[294] s_[295] s_[296] s_[297] s_[298] s_[299]
 s_[300] s_[301] s_[302] s_[303] s_[304] s_[305] s_[306] s_[307] s_[308]
 s_[309] s_[310] s_[311] s_[312] s_[313] s_[314] s_[315] s_[316] s_[317]
 s_[318] s_[319] s_[320] s_[321] s_[322] s_[323] s_[324] s_[325] s_[326]
 s_[327] s_[328] s_[329] s_[330] s_[331] s_[332] s_[333] s_[334] s_[335]
 s_[336] s_[337] s_[338] s_[339] s_[340] s_[341] s_[342] s_[343] s_[344]
 s_[345] s_[346] s_[347] s_[348] s_[349] s_[350] s_[351] s_[352] s_[353]
 s_[354] s_[355] s_[356] s_[357] s_[358] s_[359] s_[360] s_[361] s_[362]
 s_[363] s_[364] s_[365] s_[366] s_[367] s_[368] s_[369] s_[370] s_[371]
 s_[372] s_[373] s_[374] s_[375] s_[376] s_[377] s_[378] s_[379] s_[380]
 s_[381] s_[382] s_[383] s_[384] s_[385] s_[386] s_[387] s_[388] s_[389]
 s_[390] s_[391] s_[392] s_[393] s_[394] s_[395] s_[396] s_[397] s_[398]
 s_[399] s_[400] s_[401] s_[402] s_[403] s_[404] s_[405] s_[406] s_[407]
 s_[408] s_[409] s_[410] s_[411] s_[412] s_[413] s_[414] s_[415] s_[416]
 s_[417] s_[418] s_[419] s_[420] s_[421] s_[422] s_[423] s_[424] s_[425]
 s_[426] s_[427] s_[428] s_[429] s_[430] s_[431] s_[432] s_[433] s_[434]
 s_[435] s_[436] s_[437] s_[438] s_[439] s_[440] s_[441] s_[442] s_[443]
 s_[444] s_[445] s_[446] s_[447] s_[448] s_[449] s_[450] s_[451] s_[452]
 s_[453] s_[454] s_[455] s_[456] s_[457] s_[458] s_[459] s_[460] s_[461]
 s_[462] s_[463] s_[464] s_[465] s_[466] s_[467] s_[468] s_[469] s_[470]
 s_[471] s_[472] s_[473] s_[474] s_[475] s_[476] s_[477] s_[478] s_[479]
 s_[480] s_[481] s_[482] s_[483] s_[484] s_[485] s_[486] s_[487] s_[488]
 s_[489] s_[490] s_[491] s_[492] s_[493] s_[494] s_[495] s_[496] s_[497]
 s_[498] s_[499] s_[500] s_[501] s_[502] s_[503] s_[504] s_[505] s_[506]
 s_[507] s_[508] s_[509] s_[510] s_[511] s_[512] s_[513] s_[514] s_[515]
 s_[516] s_[517] s_[518] s_[519] s_[520] s_[521] s_[522] s_[523] s_[524]
 s_[525] s_[526] s_[527] s_[528] s_[529] s_[530] s_[531] s_[532] s_[533]
 s_[534] s_[535] s_[536] s_[537] s_[538] s_[539] s_[540] s_[541] s_[542]
 s_[543] s_[544] s_[545] s_[546] s_[547] s_[548] s_[549] s_[550] s_[551]
 s_[552] s_[553] s_[554] s_[555] s_[556] s_[557] s_[558] s_[559] s_[560]
 s_[561] s_[562] s_[563] s_[564] s_[565] s_[566] s_[567] s_[568] s_[569]
 s_[570] s_[571] s_[572] s_[573] s_[574] s_[575] s_[576] s_[577] s_[578]
 s_[579] s_[580] s_[581] s_[582] s_[583] s_[584] s_[585] s_[586] s_[587]
 s_[588] s_[589] s_[590] s_[591] s_[592] s_[593] s_[594] s_[595] s_[596]
 s_[597] s_[598] s_[599] s_[600] s_[601] s_[602] s_[603] s_[604] s_[605]
 s_[606] s_[607] s_[608] s_[609] s_[610] s_[611] s_[612] s_[613] s_[614]
 s_[615] s_[616] s_[617] s_[618] s_[619] s_[620] s_[621] s_[622] s_[623]
 s_[624] s_[625] s_[626] s_[627] s_[628] s_[629] s_[630] s_[631] s_[632]
 s_[633] s_[634] s_[635] s_[636] s_[637] s_[638] s_[639] s_[640] s_[641]
 s_[642] s_[643] s_[644] s_[645] s_[646] s_[647] s_[648] s_[649] s_[650]
 s_[651] s_[652] s_[653] s_[654] s_[655] s_[656] s_[657] s_[658] s_[659]
 s_[660] s_[661] s_[662] s_[663] s_[664] s_[665] s_[666] s_[667] s_[668]
 s_[669] s_[670] s_[671] s_[672] s_[673] s_[674] s_[675] s_[676] s_[677]
 s_[678] s_[679] s_[680] s_[681] s_[682] s_[683] s_[684] s_[685] s_[686]
 s_[687] s_[688] s_[689] s_[690] s_[691] s_[692] s_[693] s_[694] s_[695]
 s_[696] s_[697] s_[698] s_[699] s_[700] s_[701] s_[702] s_[703] s_[704]
 s_[705] s_[706] s_[707] s_[708] s_[709] s_[710] s_[711] s_[712] s_[713]
 s_[714] s_[715] s_[716] s_[717] s_[718] s_[719] s_[720] s_[721] s_[722]
 s_[723] s_[724] s_[725] s_[726] s_[727] s_[728] s_[729] s_[730] s_[731]
 s_[732] s_[733] s_[734] s_[735] s_[736] s_[737] s_[738] s_[739] s_[740]
 s_[741] s_[742] s_[743] s_[744] s_[745] s_[746] s_[747] s_[748] s_[749]
 s_[750] s_[751] s_[752] s_[753] s_[754] s_[755] s_[756] s_[757] s_[758]
 s_[759] s_[760] s_[761] s_[762] s_[763] s_[764] s_[765] s_[766] s_[767]
 s_[768] s_[769] s_[770] s_[771] s_[772] s_[773] s_[774] s_[775] s_[776]
 s_[777] s_[778] s_[779] s_[780] s_[781] s_[782] s_[783] s_[784] s_[785]
 s_[786] s_[787] s_[788] s_[789] s_[790] s_[791] s_[792] s_[793] d_m_[1]
 d_m_[2] d_m_[5] d_m_[7] d_m_[12] d_m_[13] d_m_[15] d_m_[16] d_m_[17]
 d_m_[19] d_m_[22] d_m_[27] d_m_[28] d_m_[30] d_m_[32] d_m_[39] d_m_[40]
 d_m_[46] d_m_[49] d_m_[51] d_m_[63] d_m_[64] d_m_[70] d_m_[74] d_m_[76]
 d_m_[78] d_m_[85] d_m_[88] d_m_[95] d_m_[96] d_m_[98] d_m_[100] d_m_[102]
 d_m_[111] d_m_[121] d_m_[122] d_m_[127] d_m_[130] d_m_[135] d_m_[139]
 d_m_[140] d_m_[141] d_m_[143] d_m_[148] d_m_[154] d_m_[157] d_m_[162]
 d_m_[164] d_m_[167] d_m_[169] d_m_[171] d_m_[174] d_m_[177] d_m_[180]
 d_m_[181] d_m_[182] d_m_[183] d_m_[187] d_m_[189] d_m_[191] d_m_[193]
 d_m_[196] d_m_[198] d_m_[203] d_m_[212] d_m_[215] d_m_[217] d_m_[218]
 d_m_[221] d_m_[222] d_m_[226] d_m_[234] d_m_[236] d_m_[240] d_m_[244]
 d_m_[247] d_m_[252] d_m_[253] d_m_[256] d_m_[258] d_m_[259] d_m_[261]
 d_m_[265] d_m_[271] d_m_[273] d_m_[276] d_m_[282] d_m_[283] d_m_[288]
 d_m_[292] d_m_[294] d_m_[295] d_m_[300] d_m_[301] d_m_[302] d_m_[304]
 d_m_[305] d_m_[313] d_m_[314] d_m_[315] d_m_[316] d_m_[319] d_m_[322]
 d_m_[325] d_m_[328] d_m_[330] d_m_[331] d_m_[333] d_m_[335] d_m_[339]
 d_m_[341] d_m_[345] d_m_[346] d_m_[351] d_m_[353] d_m_[364] d_m_[370]
 d_m_[372] d_m_[373] d_m_[375] d_m_[379] d_m_[385] d_m_[386] d_m_[388]
 d_m_[389] d_m_[391] d_m_[398] d_m_[399] d_m_[402] d_m_[403] d_m_[404]
 d_m_[406] d_m_[407] d_m_[412] d_m_[413] d_m_[414] d_m_[415] d_m_[418]
 d_m_[422] d_m_[423] d_m_[424] d_m_[426] d_m_[432] d_m_[434] d_m_[437]
 d_m_[440] d_m_[441] d_m_[446] d_m_[449] d_m_[452] d_m_[458] d_m_[459]
 d_m_[462] d_m_[467] d_m_[471] d_m_[473] d_m_[477] d_m_[479] d_m_[482]
 d_m_[485] d_m_[489] d_m_[491] d_m_[492] d_m_[501] d_m_[502] d_m_[503]
 d_m_[505] d_m_[507] d_m_[514] d_m_[515] d_m_[518] d_m_[519] d_m_[521]
 d_m_[522] d_m_[523] d_m_[532] d_m_[543] d_m_[546] d_m_[553] d_m_[557]
 d_m_[558] d_m_[563] d_m_[567] d_m_[568] d_m_[569] d_m_[570] d_m_[573]
 d_m_[574] d_m_[575] d_m_[580] d_m_[581] d_m_[589] d_m_[597] d_m_[599]
 d_m_[601] d_m_[603] d_m_[606] d_m_[609] d_m_[615] d_m_[616] d_m_[624]
End
